p cnf 256 964
-149 -150 0
-151 -152 0
-1 149 0
-1 151 0
-2 149 0
-2 152 0
-3 150 0
-3 151 0
-4 150 0
-4 152 0
-1 25 0
-1 5 0
-2 26 0
-2 6 0
-3 27 0
-3 7 0
-4 28 0
-4 8 0
-153 -154 0
-155 -156 0
-5 153 0
-5 155 0
-6 153 0
-6 156 0
-7 154 0
-7 155 0
-8 154 0
-8 156 0
-5 1 9 0
-5 1 29 0
-5 9 29 0
-6 2 10 0
-6 2 30 0
-6 10 30 0
-7 3 11 0
-7 3 31 0
-7 11 31 0
-8 4 12 0
-8 4 32 0
-8 12 32 0
-5 -1 -9 -29 0
-6 -2 -10 -30 0
-7 -3 -11 -31 0
-8 -4 -12 -32 0
-157 -158 0
-159 -160 0
-9 157 0
-9 159 0
-10 157 0
-10 160 0
-11 158 0
-11 159 0
-12 158 0
-12 160 0
-9 5 13 0
-9 5 33 0
-9 13 33 0
-10 6 14 0
-10 6 34 0
-10 14 34 0
-11 7 15 0
-11 7 35 0
-11 15 35 0
-12 8 16 0
-12 8 36 0
-12 16 36 0
-9 -5 -13 -33 0
-10 -6 -14 -34 0
-11 -7 -15 -35 0
-12 -8 -16 -36 0
-161 -162 0
-163 -164 0
-13 161 0
-13 163 0
-14 161 0
-14 164 0
-15 162 0
-15 163 0
-16 162 0
-16 164 0
-13 9 17 0
-13 9 37 0
-13 17 37 0
-14 10 18 0
-14 10 38 0
-14 18 38 0
-15 11 19 0
-15 11 39 0
-15 19 39 0
-16 12 20 0
-16 12 40 0
-16 20 40 0
-13 -9 -17 -37 0
-14 -10 -18 -38 0
-15 -11 -19 -39 0
-16 -12 -20 -40 0
-165 -166 0
-167 -168 0
-17 165 0
-17 167 0
-18 165 0
-18 168 0
-19 166 0
-19 167 0
-20 166 0
-20 168 0
-17 13 21 0
-17 13 41 0
-17 21 41 0
-18 14 22 0
-18 14 42 0
-18 22 42 0
-19 15 23 0
-19 15 43 0
-19 23 43 0
-20 16 24 0
-20 16 44 0
-20 24 44 0
-17 -13 -21 -41 0
-18 -14 -22 -42 0
-19 -15 -23 -43 0
-20 -16 -24 -44 0
-169 -170 0
-171 -172 0
-21 169 0
-21 171 0
-22 169 0
-22 172 0
-23 170 0
-23 171 0
-24 170 0
-24 172 0
-21 45 0
-21 17 0
-22 46 0
-22 18 0
-23 47 0
-23 19 0
-24 48 0
-24 20 0
-173 -174 0
-175 -176 0
-25 173 0
-25 175 0
-26 173 0
-26 176 0
-27 174 0
-27 175 0
-28 174 0
-28 176 0
-25 49 29 0
-25 49 1 0
-25 29 1 0
-26 50 30 0
-26 50 2 0
-26 30 2 0
-27 51 31 0
-27 51 3 0
-27 31 3 0
-28 52 32 0
-28 52 4 0
-28 32 4 0
-25 -49 -29 -1 0
-26 -50 -30 -2 0
-27 -51 -31 -3 0
-28 -52 -32 -4 0
31 0
-29 0
-30 0
-32 0
55 35 7 27 0
-55 -35 0
-55 -7 0
-55 -27 0
-35 -7 0
-35 -27 0
-7 -27 0
-181 -182 0
-183 -184 0
-33 181 0
-33 183 0
-34 181 0
-34 184 0
-35 182 0
-35 183 0
-36 182 0
-36 184 0
-33 57 37 9 0
-33 57 37 29 0
-33 57 9 29 0
-33 37 9 29 0
-34 58 38 10 0
-34 58 38 30 0
-34 58 10 30 0
-34 38 10 30 0
-35 59 39 11 0
-35 59 39 31 0
-35 59 11 31 0
-35 39 11 31 0
-36 60 40 12 0
-36 60 40 32 0
-36 60 12 32 0
-36 40 12 32 0
-33 -57 -37 -9 0
-33 -57 -37 -29 0
-33 -57 -9 -29 0
-33 -37 -9 -29 0
-34 -58 -38 -10 0
-34 -58 -38 -30 0
-34 -58 -10 -30 0
-34 -38 -10 -30 0
-35 -59 -39 -11 0
-35 -59 -39 -31 0
-35 -59 -11 -31 0
-35 -39 -11 -31 0
-36 -60 -40 -12 0
-36 -60 -40 -32 0
-36 -60 -12 -32 0
-36 -40 -12 -32 0
-185 -186 0
-187 -188 0
-37 185 0
-37 187 0
-38 185 0
-38 188 0
-39 186 0
-39 187 0
-40 186 0
-40 188 0
-37 61 41 13 0
-37 61 41 33 0
-37 61 13 33 0
-37 41 13 33 0
-38 62 42 14 0
-38 62 42 34 0
-38 62 14 34 0
-38 42 14 34 0
-39 63 43 15 0
-39 63 43 35 0
-39 63 15 35 0
-39 43 15 35 0
-40 64 44 16 0
-40 64 44 36 0
-40 64 16 36 0
-40 44 16 36 0
-37 -61 -41 -13 0
-37 -61 -41 -33 0
-37 -61 -13 -33 0
-37 -41 -13 -33 0
-38 -62 -42 -14 0
-38 -62 -42 -34 0
-38 -62 -14 -34 0
-38 -42 -14 -34 0
-39 -63 -43 -15 0
-39 -63 -43 -35 0
-39 -63 -15 -35 0
-39 -43 -15 -35 0
-40 -64 -44 -16 0
-40 -64 -44 -36 0
-40 -64 -16 -36 0
-40 -44 -16 -36 0
-189 -190 0
-191 -192 0
-41 189 0
-41 191 0
-42 189 0
-42 192 0
-43 190 0
-43 191 0
-44 190 0
-44 192 0
-41 65 45 17 0
-41 65 45 37 0
-41 65 17 37 0
-41 45 17 37 0
-42 66 46 18 0
-42 66 46 38 0
-42 66 18 38 0
-42 46 18 38 0
-43 67 47 19 0
-43 67 47 39 0
-43 67 19 39 0
-43 47 19 39 0
-44 68 48 20 0
-44 68 48 40 0
-44 68 20 40 0
-44 48 20 40 0
-41 -65 -45 -17 0
-41 -65 -45 -37 0
-41 -65 -17 -37 0
-41 -45 -17 -37 0
-42 -66 -46 -18 0
-42 -66 -46 -38 0
-42 -66 -18 -38 0
-42 -46 -18 -38 0
-43 -67 -47 -19 0
-43 -67 -47 -39 0
-43 -67 -19 -39 0
-43 -47 -19 -39 0
-44 -68 -48 -20 0
-44 -68 -48 -40 0
-44 -68 -20 -40 0
-44 -48 -20 -40 0
-193 -194 0
-195 -196 0
-45 193 0
-45 195 0
-46 193 0
-46 196 0
-47 194 0
-47 195 0
-48 194 0
-48 196 0
-45 69 41 0
-45 69 21 0
-45 41 21 0
-46 70 42 0
-46 70 22 0
-46 42 22 0
-47 71 43 0
-47 71 23 0
-47 43 23 0
-48 72 44 0
-48 72 24 0
-48 44 24 0
-45 -69 -41 -21 0
-46 -70 -42 -22 0
-47 -71 -43 -23 0
-48 -72 -44 -24 0
49 0
-50 0
-51 0
-52 0
73 53 25 0
-73 -53 0
-73 -25 0
-53 -25 0
56 0
-53 0
-54 0
-55 0
80 60 32 52 0
-80 -60 0
-80 -32 0
-80 -52 0
-60 -32 0
-60 -52 0
-32 -52 0
-205 -206 0
-207 -208 0
-57 205 0
-57 207 0
-58 205 0
-58 208 0
-59 206 0
-59 207 0
-60 206 0
-60 208 0
-57 81 61 33 0
-57 81 61 53 0
-57 81 33 53 0
-57 61 33 53 0
-58 82 62 34 0
-58 82 62 54 0
-58 82 34 54 0
-58 62 34 54 0
-59 83 63 35 0
-59 83 63 55 0
-59 83 35 55 0
-59 63 35 55 0
-60 84 64 36 0
-60 84 64 56 0
-60 84 36 56 0
-60 64 36 56 0
-57 -81 -61 -33 0
-57 -81 -61 -53 0
-57 -81 -33 -53 0
-57 -61 -33 -53 0
-58 -82 -62 -34 0
-58 -82 -62 -54 0
-58 -82 -34 -54 0
-58 -62 -34 -54 0
-59 -83 -63 -35 0
-59 -83 -63 -55 0
-59 -83 -35 -55 0
-59 -63 -35 -55 0
-60 -84 -64 -36 0
-60 -84 -64 -56 0
-60 -84 -36 -56 0
-60 -64 -36 -56 0
64 0
-61 0
-62 0
-63 0
88 68 40 60 0
-88 -68 0
-88 -40 0
-88 -60 0
-68 -40 0
-68 -60 0
-40 -60 0
-213 -214 0
-215 -216 0
-65 213 0
-65 215 0
-66 213 0
-66 216 0
-67 214 0
-67 215 0
-68 214 0
-68 216 0
-65 89 69 41 0
-65 89 69 61 0
-65 89 41 61 0
-65 69 41 61 0
-66 90 70 42 0
-66 90 70 62 0
-66 90 42 62 0
-66 70 42 62 0
-67 91 71 43 0
-67 91 71 63 0
-67 91 43 63 0
-67 71 43 63 0
-68 92 72 44 0
-68 92 72 64 0
-68 92 44 64 0
-68 72 44 64 0
-65 -89 -69 -41 0
-65 -89 -69 -61 0
-65 -89 -41 -61 0
-65 -69 -41 -61 0
-66 -90 -70 -42 0
-66 -90 -70 -62 0
-66 -90 -42 -62 0
-66 -70 -42 -62 0
-67 -91 -71 -43 0
-67 -91 -71 -63 0
-67 -91 -43 -63 0
-67 -71 -43 -63 0
-68 -92 -72 -44 0
-68 -92 -72 -64 0
-68 -92 -44 -64 0
-68 -72 -44 -64 0
-217 -218 0
-219 -220 0
-69 217 0
-69 219 0
-70 217 0
-70 220 0
-71 218 0
-71 219 0
-72 218 0
-72 220 0
-69 93 65 0
-69 93 45 0
-69 65 45 0
-70 94 66 0
-70 94 46 0
-70 66 46 0
-71 95 67 0
-71 95 47 0
-71 67 47 0
-72 96 68 0
-72 96 48 0
-72 68 48 0
-69 -93 -65 -45 0
-70 -94 -66 -46 0
-71 -95 -67 -47 0
-72 -96 -68 -48 0
74 0
-73 0
-75 0
-76 0
98 78 50 0
-98 -78 0
-98 -50 0
-78 -50 0
79 0
-77 0
-78 0
-80 0
103 83 55 75 0
-103 -83 0
-103 -55 0
-103 -75 0
-83 -55 0
-83 -75 0
-55 -75 0
-229 -230 0
-231 -232 0
-81 229 0
-81 231 0
-82 229 0
-82 232 0
-83 230 0
-83 231 0
-84 230 0
-84 232 0
-81 105 85 57 0
-81 105 85 77 0
-81 105 57 77 0
-81 85 57 77 0
-82 106 86 58 0
-82 106 86 78 0
-82 106 58 78 0
-82 86 58 78 0
-83 107 87 59 0
-83 107 87 79 0
-83 107 59 79 0
-83 87 59 79 0
-84 108 88 60 0
-84 108 88 80 0
-84 108 60 80 0
-84 88 60 80 0
-81 -105 -85 -57 0
-81 -105 -85 -77 0
-81 -105 -57 -77 0
-81 -85 -57 -77 0
-82 -106 -86 -58 0
-82 -106 -86 -78 0
-82 -106 -58 -78 0
-82 -86 -58 -78 0
-83 -107 -87 -59 0
-83 -107 -87 -79 0
-83 -107 -59 -79 0
-83 -87 -59 -79 0
-84 -108 -88 -60 0
-84 -108 -88 -80 0
-84 -108 -60 -80 0
-84 -88 -60 -80 0
-233 -234 0
-235 -236 0
-85 233 0
-85 235 0
-86 233 0
-86 236 0
-87 234 0
-87 235 0
-88 234 0
-88 236 0
-85 109 89 61 0
-85 109 89 81 0
-85 109 61 81 0
-85 89 61 81 0
-86 110 90 62 0
-86 110 90 82 0
-86 110 62 82 0
-86 90 62 82 0
-87 111 91 63 0
-87 111 91 83 0
-87 111 63 83 0
-87 91 63 83 0
-88 112 92 64 0
-88 112 92 84 0
-88 112 64 84 0
-88 92 64 84 0
-85 -109 -89 -61 0
-85 -109 -89 -81 0
-85 -109 -61 -81 0
-85 -89 -61 -81 0
-86 -110 -90 -62 0
-86 -110 -90 -82 0
-86 -110 -62 -82 0
-86 -90 -62 -82 0
-87 -111 -91 -63 0
-87 -111 -91 -83 0
-87 -111 -63 -83 0
-87 -91 -63 -83 0
-88 -112 -92 -64 0
-88 -112 -92 -84 0
-88 -112 -64 -84 0
-88 -92 -64 -84 0
-237 -238 0
-239 -240 0
-89 237 0
-89 239 0
-90 237 0
-90 240 0
-91 238 0
-91 239 0
-92 238 0
-92 240 0
-89 113 93 65 0
-89 113 93 85 0
-89 113 65 85 0
-89 93 65 85 0
-90 114 94 66 0
-90 114 94 86 0
-90 114 66 86 0
-90 94 66 86 0
-91 115 95 67 0
-91 115 95 87 0
-91 115 67 87 0
-91 95 67 87 0
-92 116 96 68 0
-92 116 96 88 0
-92 116 68 88 0
-92 96 68 88 0
-89 -113 -93 -65 0
-89 -113 -93 -85 0
-89 -113 -65 -85 0
-89 -93 -65 -85 0
-90 -114 -94 -66 0
-90 -114 -94 -86 0
-90 -114 -66 -86 0
-90 -94 -66 -86 0
-91 -115 -95 -67 0
-91 -115 -95 -87 0
-91 -115 -67 -87 0
-91 -95 -67 -87 0
-92 -116 -96 -68 0
-92 -116 -96 -88 0
-92 -116 -68 -88 0
-92 -96 -68 -88 0
-241 -242 0
-243 -244 0
-93 241 0
-93 243 0
-94 241 0
-94 244 0
-95 242 0
-95 243 0
-96 242 0
-96 244 0
-93 117 89 0
-93 117 69 0
-93 89 69 0
-94 118 90 0
-94 118 70 0
-94 90 70 0
-95 119 91 0
-95 119 71 0
-95 91 71 0
-96 120 92 0
-96 120 72 0
-96 92 72 0
-93 -117 -89 -69 0
-94 -118 -90 -70 0
-95 -119 -91 -71 0
-96 -120 -92 -72 0
-245 -246 0
-247 -248 0
-97 245 0
-97 247 0
-98 245 0
-98 248 0
-99 246 0
-99 247 0
-100 246 0
-100 248 0
-97 121 101 0
-97 121 73 0
-97 101 73 0
-98 122 102 0
-98 122 74 0
-98 102 74 0
-99 123 103 0
-99 123 75 0
-99 103 75 0
-100 124 104 0
-100 124 76 0
-100 104 76 0
-97 -121 -101 -73 0
-98 -122 -102 -74 0
-99 -123 -103 -75 0
-100 -124 -104 -76 0
-249 -250 0
-251 -252 0
-101 249 0
-101 251 0
-102 249 0
-102 252 0
-103 250 0
-103 251 0
-104 250 0
-104 252 0
-101 125 105 77 0
-101 125 105 97 0
-101 125 77 97 0
-101 105 77 97 0
-102 126 106 78 0
-102 126 106 98 0
-102 126 78 98 0
-102 106 78 98 0
-103 127 107 79 0
-103 127 107 99 0
-103 127 79 99 0
-103 107 79 99 0
-104 128 108 80 0
-104 128 108 100 0
-104 128 80 100 0
-104 108 80 100 0
-101 -125 -105 -77 0
-101 -125 -105 -97 0
-101 -125 -77 -97 0
-101 -105 -77 -97 0
-102 -126 -106 -78 0
-102 -126 -106 -98 0
-102 -126 -78 -98 0
-102 -106 -78 -98 0
-103 -127 -107 -79 0
-103 -127 -107 -99 0
-103 -127 -79 -99 0
-103 -107 -79 -99 0
-104 -128 -108 -80 0
-104 -128 -108 -100 0
-104 -128 -80 -100 0
-104 -108 -80 -100 0
-253 -254 0
-255 -256 0
-105 253 0
-105 255 0
-106 253 0
-106 256 0
-107 254 0
-107 255 0
-108 254 0
-108 256 0
-105 129 109 81 0
-105 129 109 101 0
-105 129 81 101 0
-105 109 81 101 0
-106 130 110 82 0
-106 130 110 102 0
-106 130 82 102 0
-106 110 82 102 0
-107 131 111 83 0
-107 131 111 103 0
-107 131 83 103 0
-107 111 83 103 0
-108 132 112 84 0
-108 132 112 104 0
-108 132 84 104 0
-108 112 84 104 0
-105 -129 -109 -81 0
-105 -129 -109 -101 0
-105 -129 -81 -101 0
-105 -109 -81 -101 0
-106 -130 -110 -82 0
-106 -130 -110 -102 0
-106 -130 -82 -102 0
-106 -110 -82 -102 0
-107 -131 -111 -83 0
-107 -131 -111 -103 0
-107 -131 -83 -103 0
-107 -111 -83 -103 0
-108 -132 -112 -84 0
-108 -132 -112 -104 0
-108 -132 -84 -104 0
-108 -112 -84 -104 0
-257 -258 0
-259 -260 0
-109 257 0
-109 259 0
-110 257 0
-110 260 0
-111 258 0
-111 259 0
-112 258 0
-112 260 0
-109 133 113 85 0
-109 133 113 105 0
-109 133 85 105 0
-109 113 85 105 0
-110 134 114 86 0
-110 134 114 106 0
-110 134 86 106 0
-110 114 86 106 0
-111 135 115 87 0
-111 135 115 107 0
-111 135 87 107 0
-111 115 87 107 0
-112 136 116 88 0
-112 136 116 108 0
-112 136 88 108 0
-112 116 88 108 0
-109 -133 -113 -85 0
-109 -133 -113 -105 0
-109 -133 -85 -105 0
-109 -113 -85 -105 0
-110 -134 -114 -86 0
-110 -134 -114 -106 0
-110 -134 -86 -106 0
-110 -114 -86 -106 0
-111 -135 -115 -87 0
-111 -135 -115 -107 0
-111 -135 -87 -107 0
-111 -115 -87 -107 0
-112 -136 -116 -88 0
-112 -136 -116 -108 0
-112 -136 -88 -108 0
-112 -116 -88 -108 0
114 0
-113 0
-115 0
-116 0
138 118 90 110 0
-138 -118 0
-138 -90 0
-138 -110 0
-118 -90 0
-118 -110 0
-90 -110 0
-265 -266 0
-267 -268 0
-117 265 0
-117 267 0
-118 265 0
-118 268 0
-119 266 0
-119 267 0
-120 266 0
-120 268 0
-117 141 113 0
-117 141 93 0
-117 113 93 0
-118 142 114 0
-118 142 94 0
-118 114 94 0
-119 143 115 0
-119 143 95 0
-119 115 95 0
-120 144 116 0
-120 144 96 0
-120 116 96 0
-117 -141 -113 -93 0
-118 -142 -114 -94 0
-119 -143 -115 -95 0
-120 -144 -116 -96 0
121 0
-122 0
-123 0
-124 0
97 125 0
-97 -125 0
-273 -274 0
-275 -276 0
-125 273 0
-125 275 0
-126 273 0
-126 276 0
-127 274 0
-127 275 0
-128 274 0
-128 276 0
-125 101 129 0
-125 101 121 0
-125 129 121 0
-126 102 130 0
-126 102 122 0
-126 130 122 0
-127 103 131 0
-127 103 123 0
-127 131 123 0
-128 104 132 0
-128 104 124 0
-128 132 124 0
-125 -101 -129 -121 0
-126 -102 -130 -122 0
-127 -103 -131 -123 0
-128 -104 -132 -124 0
-277 -278 0
-279 -280 0
-129 277 0
-129 279 0
-130 277 0
-130 280 0
-131 278 0
-131 279 0
-132 278 0
-132 280 0
-129 105 133 0
-129 105 125 0
-129 133 125 0
-130 106 134 0
-130 106 126 0
-130 134 126 0
-131 107 135 0
-131 107 127 0
-131 135 127 0
-132 108 136 0
-132 108 128 0
-132 136 128 0
-129 -105 -133 -125 0
-130 -106 -134 -126 0
-131 -107 -135 -127 0
-132 -108 -136 -128 0
-281 -282 0
-283 -284 0
-133 281 0
-133 283 0
-134 281 0
-134 284 0
-135 282 0
-135 283 0
-136 282 0
-136 284 0
-133 109 137 0
-133 109 129 0
-133 137 129 0
-134 110 138 0
-134 110 130 0
-134 138 130 0
-135 111 139 0
-135 111 131 0
-135 139 131 0
-136 112 140 0
-136 112 132 0
-136 140 132 0
-133 -109 -137 -129 0
-134 -110 -138 -130 0
-135 -111 -139 -131 0
-136 -112 -140 -132 0
-285 -286 0
-287 -288 0
-137 285 0
-137 287 0
-138 285 0
-138 288 0
-139 286 0
-139 287 0
-140 286 0
-140 288 0
-137 113 141 0
-137 113 133 0
-137 141 133 0
-138 114 142 0
-138 114 134 0
-138 142 134 0
-139 115 143 0
-139 115 135 0
-139 143 135 0
-140 116 144 0
-140 116 136 0
-140 144 136 0
-137 -113 -141 -133 0
-138 -114 -142 -134 0
-139 -115 -143 -135 0
-140 -116 -144 -136 0
-289 -290 0
-291 -292 0
-141 289 0
-141 291 0
-142 289 0
-142 292 0
-143 290 0
-143 291 0
-144 290 0
-144 292 0
-141 117 0
-141 137 0
-142 118 0
-142 138 0
-143 119 0
-143 139 0
-144 120 0
-144 140 0
81 85 89 93 0
97 101 105 109 117 0
6 102 126 0
10 34 58 82 106 130 0
14 38 86 110 134 0
59 67 71 0
12 36 60 84 108 132 0